20 64
1 5 1
1 7 1
1 12 1
1 16 1
1 19 1
1 20 1
2 5 1
2 6 1
2 8 1
2 9 1
2 10 1
2 13 1
2 14 1
2 15 1
2 16 1
3 5 1
3 6 1
3 7 1
3 8 1
3 10 1
3 11 1
4 5 1
4 6 1
4 7 1
4 9 1
5 6 1
5 8 1
5 10 1
5 11 1
5 12 1
5 14 1
5 16 1
5 18 1
5 19 1
5 20 1
6 7 1
6 8 1
6 9 1
6 11 1
6 13 1
6 14 1
7 9 1
7 12 1
8 11 1
8 14 1
8 15 1
8 19 1
9 10 1
9 12 1
9 13 1
10 13 1
10 17 1
10 18 1
11 17 1
12 20 1
13 15 1
13 18 1
14 15 1
14 16 1
14 17 1
15 17 1
15 18 1
15 19 1
18 20 1
